c CNF formula generated by generate_input.py
c Number of variables: 25
c Number of clauses: 25
c Clause length: random between 1 and 4
p cnf 25 25
-25 11 4 0
4 -20 10 17 0
-16 12 0
-19 -1 0
25 24 -6 0
16 3 -14 -9 0
6 -23 12 0
-13 -5 -25 21 0
-18 -25 21 0
-21 9 7 24 0
-18 17 13 0
-1 -22 -21 -15 0
-23 0
15 21 17 0
1 2 14 8 0
-21 0
-17 0
23 0
1 24 17 11 0
24 21 0
-10 2 7 0
3 13 14 -2 0
-2 0
-17 0
16 -6 0
